words_hard_train/8036.qaiger
aag 105 16 0 1 89
2
4
8
12
16
20
24
62
102
120
132
136
146
160
174
194
210
6 3 5
10 6 9
14 10 13
18 14 17
22 18 21
26 23 24
28 15 16
30 29 19
32 2 4
34 7 8
36 33 34
38 35 11
40 37 39
42 11 12
44 43 15
46 41 44
48 31 47
50 19 20
52 51 23
54 48 53
56 27 55
58 22 25
60 57 59
64 61 62
66 60 63
68 65 67
70 49 52
72 71 55
74 30 46
76 75 49
78 33 7
80 78 3
82 79 38
84 83 37
86 80 85
88 40 45
90 89 47
92 86 91
94 76 92
96 73 95
98 94 53
100 97 99
104 101 103
106 27 59
108 106 54
110 107 55
112 109 111
114 113 99
116 112 98
118 115 117
122 119 120
124 105 123
126 100 102
128 81 84
130 129 87
134 133 2
138 136 4
140 134 139
142 137 5
144 141 143
148 144 147
150 130 149
152 145 146
154 151 153
156 87 90
158 157 93
162 158 160
164 154 163
166 159 161
168 165 167
170 77 93
172 171 95
176 173 174
178 168 177
180 127 179
182 172 175
184 180 183
186 124 185
188 118 121
190 187 189
192 69 191
196 116 195
198 193 197
200 68 190
202 117 194
204 201 203
206 198 205
208 192 196
210 207 209
i0 2 y1[7]
i1 2 y1[6]
i2 2 y1[5]
i3 2 y1[4]
i4 2 y1[3]
i5 2 y1[2]
i6 2 y1[1]
i7 2 y1[0]
i8 1 x1[5]
i9 1 x1[6]
i10 1 x1[0]
i11 1 x1[1]
i12 1 x1[2]
i13 1 x1[3]
i14 1 x1[4]
i15 1 x1[7]
o0 bv[0]
c
simplified
  <=
    subtract
      -202
      reverse
        2 y1
    xor
      83
      1 x1
