words_hard_train/8036.qaiger.qdimacs
p cnf 105 268
a 97 66 68 73 80 51 87 60 0
e 1 2 3 4 5 6 7 8 9 10 11 12 13 14 15 16 17 18 19 20 21 22 23 24 25 26 27 28 29 30 31 32 33 34 35 36 37 38 39 40 41 42 43 44 45 46 47 48 49 50 52 53 54 55 56 57 58 59 61 62 63 64 65 67 69 70 71 72 74 75 76 77 78 79 81 82 83 84 85 86 88 89 90 91 92 93 94 95 96 98 99 100 101 102 103 104 105 0
1 2 3 0
-1 -3 0
-2 -3 0
-3 4 5 0
3 -5 0
-4 -5 0
-5 6 7 0
5 -7 0
-6 -7 0
-7 8 9 0
7 -9 0
-8 -9 0
-9 10 11 0
9 -11 0
-10 -11 0
11 -12 13 0
-11 -13 0
12 -13 0
7 -8 14 0
-7 -14 0
8 -14 0
14 9 15 0
-14 -15 0
-9 -15 0
-1 -2 16 0
1 -16 0
2 -16 0
3 -4 17 0
-3 -17 0
4 -17 0
16 -17 18 0
-16 -18 0
17 -18 0
17 5 19 0
-17 -19 0
-5 -19 0
18 19 20 0
-18 -20 0
-19 -20 0
5 -6 21 0
-5 -21 0
6 -21 0
21 7 22 0
-21 -22 0
-7 -22 0
20 -22 23 0
-20 -23 0
22 -23 0
15 23 24 0
-15 -24 0
-23 -24 0
9 -10 25 0
-9 -25 0
10 -25 0
25 11 26 0
-25 -26 0
-11 -26 0
-24 26 27 0
24 -27 0
-26 -27 0
13 27 28 0
-13 -28 0
-27 -28 0
-11 12 29 0
11 -29 0
-12 -29 0
28 29 30 0
-28 -30 0
-29 -30 0
30 -31 32 0
-30 -32 0
31 -32 0
-30 31 33 0
30 -33 0
-31 -33 0
32 33 34 0
-32 -34 0
-33 -34 0
24 -26 35 0
-24 -35 0
26 -35 0
35 27 36 0
-35 -36 0
-27 -36 0
-15 -23 37 0
15 -37 0
23 -37 0
37 24 38 0
-37 -38 0
-24 -38 0
16 3 39 0
-16 -39 0
-3 -39 0
-39 1 40 0
39 -40 0
-1 -40 0
39 -19 41 0
-39 -41 0
19 -41 0
41 18 42 0
-41 -42 0
-18 -42 0
-40 42 43 0
40 -43 0
-42 -43 0
-20 22 44 0
20 -44 0
-22 -44 0
44 23 45 0
-44 -45 0
-23 -45 0
-43 45 46 0
43 -46 0
-45 -46 0
-38 -46 47 0
38 -47 0
46 -47 0
36 47 48 0
-36 -48 0
-47 -48 0
-47 26 49 0
47 -49 0
-26 -49 0
48 49 50 0
-48 -50 0
-49 -50 0
50 51 52 0
-50 -52 0
-51 -52 0
13 29 53 0
-13 -53 0
-29 -53 0
-53 -27 54 0
53 -54 0
27 -54 0
53 27 55 0
-53 -55 0
-27 -55 0
54 55 56 0
-54 -56 0
-55 -56 0
56 49 57 0
-56 -57 0
-49 -57 0
-56 -49 58 0
56 -58 0
49 -58 0
57 58 59 0
-57 -59 0
-58 -59 0
59 -60 61 0
-59 -61 0
60 -61 0
52 61 62 0
-52 -62 0
-61 -62 0
-50 -51 63 0
50 -63 0
51 -63 0
40 -42 64 0
-40 -64 0
42 -64 0
64 43 65 0
-64 -65 0
-43 -65 0
66 -1 67 0
-66 -67 0
1 -67 0
-68 -2 69 0
68 -69 0
2 -69 0
-67 69 70 0
67 -70 0
-69 -70 0
68 2 71 0
-68 -71 0
-2 -71 0
70 71 72 0
-70 -72 0
-71 -72 0
-72 73 74 0
72 -74 0
-73 -74 0
-65 74 75 0
65 -75 0
-74 -75 0
72 -73 76 0
-72 -76 0
73 -76 0
75 76 77 0
-75 -77 0
-76 -77 0
43 -45 78 0
-43 -78 0
45 -78 0
78 46 79 0
-78 -79 0
-46 -79 0
-79 -80 81 0
79 -81 0
80 -81 0
-77 81 82 0
77 -82 0
-81 -82 0
79 80 83 0
-79 -83 0
-80 -83 0
82 83 84 0
-82 -84 0
-83 -84 0
38 46 85 0
-38 -85 0
-46 -85 0
85 47 86 0
-85 -86 0
-47 -86 0
86 -87 88 0
-86 -88 0
87 -88 0
-84 88 89 0
84 -89 0
-88 -89 0
63 89 90 0
-63 -90 0
-89 -90 0
-86 87 91 0
86 -91 0
-87 -91 0
-90 91 92 0
90 -92 0
-91 -92 0
-62 92 93 0
62 -93 0
-92 -93 0
-59 60 94 0
59 -94 0
-60 -94 0
93 94 95 0
-93 -95 0
-94 -95 0
34 95 96 0
-34 -96 0
-95 -96 0
-58 97 98 0
58 -98 0
-97 -98 0
96 98 99 0
-96 -99 0
-98 -99 0
-34 -95 100 0
34 -100 0
95 -100 0
58 -97 101 0
-58 -101 0
97 -101 0
100 101 102 0
-100 -102 0
-101 -102 0
-99 102 103 0
99 -103 0
-102 -103 0
-96 -98 104 0
96 -104 0
98 -104 0
103 104 105 0
-103 -105 0
-104 -105 0
105 0
